80 7 26 75 54 66 77 86 92 96 98 97 93 87 78 45 23 88 43 8 34 0 94 46 58 6 44 19 73 64 67 50 10 13 90 16 57 56 53 27 3 62 68 31 89 85 83 60 65 59 99 51 79 38 1 81 55 9 22 20 29 48 71 25 37 74 17 39 42 33 12 91 32 95 82 14 47 11 41 52 15 2 69 70 5 49 40 28 24 35 21 61 84 63 30 36 76 72 18 4 

